g3 3 1 0	# problem 30l3i
 468 136 1 0 93	# vars, constraints, objectives, ranges, eqns
 0 1	# nonlinear constraints, objectives
 0 0	# network constraints: nonlinear, linear
 0 150 0	# nonlinear vars in constraints, objectives, both
 0 0 0 1	# linear network variables; functions; arith, flags
 0 318 0 0 150	# discrete variables: binary, integer, nonlinear (b,c,o)
 1812 438	# nonzeros in Jacobian, gradients
 0 0	# max name lengths: constraints, variables
 0 0 0 0 0	# common exprs: b,c,o,c1,o1
b
2 0
2 0
2 0
2 0
2 0
2 0
2 0
2 0
2 0
2 0
2 0
2 0
2 0
2 0
2 0
2 0
2 0
2 0
2 0
2 0
2 0
2 0
2 0
2 0
2 0
2 0
2 0
2 0
2 0
2 0
2 0
2 0
2 0
2 0
2 0
2 0
2 0
2 0
2 0
2 0
2 0
2 0
2 0
2 0
2 0
2 0
2 0
2 0
2 0
2 0
2 0
2 0
2 0
2 0
2 0
2 0
2 0
2 0
2 0
2 0
2 0
2 0
2 0
2 0
2 0
2 0
2 0
2 0
2 0
2 0
2 0
2 0
2 0
2 0
2 0
2 0
2 0
2 0
2 0
2 0
2 0
2 0
2 0
2 0
2 0
2 0
2 0
2 0
2 0
2 0
2 0
2 0
2 0
2 0
2 0
2 0
2 0
2 0
2 0
2 0
2 0
2 0
2 0
2 0
2 0
2 0
2 0
2 0
2 0
2 0
2 0
2 0
2 0
2 0
2 0
2 0
2 0
2 0
2 0
2 0
2 0
2 0
2 0
2 0
2 0
2 0
2 0
2 0
2 0
2 0
2 0
2 0
2 0
2 0
2 0
2 0
2 0
2 0
2 0
2 0
2 0
2 0
2 0
2 0
2 0
2 0
2 0
2 0
2 0
2 0
0 0 40
0 0 40
0 0 40
0 0 40
0 0 40
0 0 40
0 0 40
0 0 40
0 0 40
0 0 40
0 0 40
0 0 40
0 0 40
0 0 40
0 0 40
0 0 40
0 0 40
0 0 40
0 0 40
0 0 40
0 0 40
0 0 40
0 0 40
0 0 40
0 0 50
0 0 60
0 0 60
0 0 50
0 0 60
0 0 60
0 0 50
0 0 60
0 0 60
0 0 50
0 0 60
0 0 60
0 0 50
0 0 60
0 0 60
0 0 50
0 0 60
0 0 60
0 0 50
0 0 60
0 0 60
0 0 50
0 0 60
0 0 60
0 0 30
0 0 70
0 0 60
0 0 30
0 0 70
0 0 60
0 0 30
0 0 70
0 0 60
0 0 30
0 0 70
0 0 60
0 0 30
0 0 70
0 0 60
0 0 30
0 0 70
0 0 60
0 0 30
0 0 70
0 0 60
0 0 30
0 0 70
0 0 60
0 0 40
0 0 20
0 0 10
0 0 40
0 0 20
0 0 10
0 0 40
0 0 20
0 0 10
0 0 40
0 0 20
0 0 10
0 0 40
0 0 20
0 0 10
0 0 40
0 0 20
0 0 10
0 0 40
0 0 20
0 0 10
0 0 40
0 0 20
0 0 10
0 0 50
0 0 50
0 0 70
0 0 50
0 0 50
0 0 70
0 0 50
0 0 50
0 0 70
0 0 50
0 0 50
0 0 70
0 0 50
0 0 50
0 0 70
0 0 50
0 0 50
0 0 70
0 0 50
0 0 50
0 0 70
0 0 50
0 0 50
0 0 70
0 0 30
0 0 50
0 0 20
0 0 30
0 0 50
0 0 20
0 0 30
0 0 50
0 0 20
0 0 30
0 0 50
0 0 20
0 0 30
0 0 50
0 0 20
0 0 30
0 0 50
0 0 20
0 0 30
0 0 50
0 0 20
0 0 30
0 0 50
0 0 20
0 0 160
0 0 110
0 0 140
0 0 160
0 0 110
0 0 140
0 0 160
0 0 110
0 0 140
0 0 160
0 0 110
0 0 140
0 0 160
0 0 110
0 0 140
0 0 160
0 0 110
0 0 140
0 0 160
0 0 110
0 0 140
0 0 160
0 0 110
0 0 140
0 0 199
0 0 199
0 0 199
0 0 199
0 0 199
0 0 199
0 0 199
0 0 199
0 0 199
0 0 199
0 0 199
0 0 199
0 0 199
0 0 199
0 0 199
0 0 212
0 0 212
0 0 212
0 0 212
0 0 212
0 0 212
0 0 212
0 0 212
0 0 212
0 0 212
0 0 212
0 0 212
0 0 212
0 0 212
0 0 212
0 0 184
0 0 184
0 0 184
0 0 184
0 0 184
0 0 184
0 0 184
0 0 184
0 0 184
0 0 184
0 0 184
0 0 184
0 0 184
0 0 184
0 0 184
0 0 198
0 0 198
0 0 198
0 0 198
0 0 198
0 0 198
0 0 198
0 0 198
0 0 198
0 0 198
0 0 198
0 0 198
0 0 198
0 0 198
0 0 198
0 0 208
0 0 208
0 0 208
0 0 208
0 0 208
0 0 208
0 0 208
0 0 208
0 0 208
0 0 208
0 0 208
0 0 208
0 0 208
0 0 208
0 0 208
0 0 202
0 0 202
0 0 202
0 0 202
0 0 202
0 0 202
0 0 202
0 0 202
0 0 202
0 0 202
0 0 202
0 0 202
0 0 202
0 0 202
0 0 202
0 0 207
0 0 207
0 0 207
0 0 207
0 0 207
0 0 207
0 0 207
0 0 207
0 0 207
0 0 207
0 0 207
0 0 207
0 0 207
0 0 207
0 0 207
0 0 237
0 0 237
0 0 237
0 0 237
0 0 237
0 0 237
0 0 237
0 0 237
0 0 237
0 0 237
0 0 237
0 0 237
0 0 237
0 0 237
0 0 237
0 0 40
0 0 20
0 0 30
0 0 30
0 0 80
0 0 90
0 0 80
0 0 100
0 0 70
0 0 30
0 0 30
0 0 100
0 0 30
0 0 20
0 0 80
0 0 50
0 0 50
0 0 30
0 0 80
0 0 70
0 0 20
0 0 30
0 0 60
0 0 30
0 0 20
0 0 60
0 0 30
0 0 100
0 0 10
0 0 10
r
4 40
4 40
4 40
4 50
4 60
4 60
4 30
4 70
4 60
4 40
4 20
4 10
4 50
4 50
4 70
4 30
4 50
4 20
4 160
4 110
4 140
4 0
4 0
4 0
4 0
4 0
4 0
4 0
4 0
4 0
4 0
4 0
4 0
4 0
4 0
4 0
4 0
4 0
4 0
4 0
4 0
4 0
4 0
4 0
4 0
4 0
4 0
4 0
4 0
4 0
4 0
4 0
4 0
4 0
4 0
4 0
4 0
4 0
4 0
4 0
4 -40
4 -20
4 -30
4 -30
4 -80
4 -90
4 -80
4 -100
4 -70
4 -30
4 -30
4 -110
4 -30
4 -20
4 -80
4 -50
4 -50
4 -30
4 -80
4 -70
4 -20
4 -30
4 -60
4 -30
4 -20
4 -60
4 -30
4 -110
4 -10
4 -10
4 100
4 100
4 100
1 199
1 212
1 184
1 198
1 208
1 202
1 207
1 237
1 297
1 291
1 313
1 316
1 436
1 90
1 200
1 250
1 170
1 130
1 130
1 170
1 120
1 110
1 130
1 120
1 170
1 160
1 70
1 170
1 100
1 410
1 199
1 212
1 184
1 198
1 208
1 202
1 207
1 237
1 297
1 291
1 313
1 316
1 436
C0
n0
C1
n0
C2
n0
C3
n0
C4
n0
C5
n0
C6
n0
C7
n0
C8
n0
C9
n0
C10
n0
C11
n0
C12
n0
C13
n0
C14
n0
C15
n0
C16
n0
C17
n0
C18
n0
C19
n0
C20
n0
C21
n0
C22
n0
C23
n0
C24
n0
C25
n0
C26
n0
C27
n0
C28
n0
C29
n0
C30
n0
C31
n0
C32
n0
C33
n0
C34
n0
C35
n0
C36
n0
C37
n0
C38
n0
C39
n0
C40
n0
C41
n0
C42
n0
C43
n0
C44
n0
C45
n0
C46
n0
C47
n0
C48
n0
C49
n0
C50
n0
C51
n0
C52
n0
C53
n0
C54
n0
C55
n0
C56
n0
C57
n0
C58
n0
C59
n0
C60
n0
C61
n0
C62
n0
C63
n0
C64
n0
C65
n0
C66
n0
C67
n0
C68
n0
C69
n0
C70
n0
C71
n0
C72
n0
C73
n0
C74
n0
C75
n0
C76
n0
C77
n0
C78
n0
C79
n0
C80
n0
C81
n0
C82
n0
C83
n0
C84
n0
C85
n0
C86
n0
C87
n0
C88
n0
C89
n0
C90
n0
C91
n0
C92
n0
C93
n0
C94
n0
C95
n0
C96
n0
C97
n0
C98
n0
C99
n0
C100
n0
C101
n0
C102
n0
C103
n0
C104
n0
C105
n0
C106
n0
C107
n0
C108
n0
C109
n0
C110
n0
C111
n0
C112
n0
C113
n0
C114
n0
C115
n0
C116
n0
C117
n0
C118
n0
C119
n0
C120
n0
C121
n0
C122
n0
C123
n0
C124
n0
C125
n0
C126
n0
C127
n0
C128
n0
C129
n0
C130
n0
C131
n0
C132
n0
C133
n0
C134
n0
C135
n0
O0 0
o54
30
o2
n10000
o5
o16
o3
o54
5
v0
v30
v60
v90
v120
n-40
n2
o2
n10000
o5
o16
o3
o54
5
v1
v31
v61
v91
v121
n-20
n2
o2
n10000
o5
o16
o3
o54
5
v2
v32
v62
v92
v122
n-30
n2
o2
n10000
o5
o16
o3
o54
5
v3
v33
v63
v93
v123
n-30
n2
o2
n10000
o5
o16
o3
o54
5
v4
v34
v64
v94
v124
n-80
n2
o2
n10000
o5
o16
o3
o54
5
v5
v35
v65
v95
v125
n-90
n2
o2
n10000
o5
o16
o3
o54
5
v6
v36
v66
v96
v126
n-80
n2
o2
n10000
o5
o16
o3
o54
5
v7
v37
v67
v97
v127
n-100
n2
o2
n10000
o5
o16
o3
o54
5
v8
v38
v68
v98
v128
n-70
n2
o2
n10000
o5
o16
o3
o54
5
v9
v39
v69
v99
v129
n-30
n2
o2
n10000
o5
o16
o3
o54
5
v10
v40
v70
v100
v130
n-30
n2
o2
n10000
o5
o16
o3
o54
5
v11
v41
v71
v101
v131
n-110
n2
o2
n10000
o5
o16
o3
o54
5
v12
v42
v72
v102
v132
n-30
n2
o2
n10000
o5
o16
o3
o54
5
v13
v43
v73
v103
v133
n-20
n2
o2
n10000
o5
o16
o3
o54
5
v14
v44
v74
v104
v134
n-80
n2
o2
n10000
o5
o16
o3
o54
5
v15
v45
v75
v105
v135
n-50
n2
o2
n10000
o5
o16
o3
o54
5
v16
v46
v76
v106
v136
n-50
n2
o2
n10000
o5
o16
o3
o54
5
v17
v47
v77
v107
v137
n-30
n2
o2
n10000
o5
o16
o3
o54
5
v18
v48
v78
v108
v138
n-80
n2
o2
n10000
o5
o16
o3
o54
5
v19
v49
v79
v109
v139
n-70
n2
o2
n10000
o5
o16
o3
o54
5
v20
v50
v80
v110
v140
n-20
n2
o2
n10000
o5
o16
o3
o54
5
v21
v51
v81
v111
v141
n-30
n2
o2
n10000
o5
o16
o3
o54
5
v22
v52
v82
v112
v142
n-60
n2
o2
n10000
o5
o16
o3
o54
5
v23
v53
v83
v113
v143
n-30
n2
o2
n10000
o5
o16
o3
o54
5
v24
v54
v84
v114
v144
n-20
n2
o2
n10000
o5
o16
o3
o54
5
v25
v55
v85
v115
v145
n-60
n2
o2
n10000
o5
o16
o3
o54
5
v26
v56
v86
v116
v146
n-30
n2
o2
n10000
o5
o16
o3
o54
5
v27
v57
v87
v117
v147
n-110
n2
o2
n10000
o5
o16
o3
o54
5
v28
v58
v88
v118
v148
n-10
n2
o2
n10000
o5
o16
o3
o54
5
v29
v59
v89
v119
v149
n-10
n2
k467
4
8
12
16
20
24
28
32
36
40
44
48
52
56
60
64
68
72
76
80
84
88
92
96
100
104
108
112
116
120
124
128
132
136
140
144
148
152
156
160
164
168
172
176
180
184
188
192
196
200
204
208
212
216
220
224
228
232
236
240
244
248
252
256
260
264
268
272
276
280
284
288
292
296
300
304
308
312
316
320
324
328
332
336
340
344
348
352
356
360
364
368
372
376
380
384
388
392
396
400
404
408
412
416
420
424
428
432
436
440
444
448
452
456
460
464
468
472
476
480
484
488
492
496
500
504
508
512
516
520
524
528
532
536
540
544
548
552
556
560
564
568
572
576
580
584
588
592
596
600
604
608
612
616
620
624
628
632
636
640
644
648
652
656
660
664
668
672
676
680
684
688
692
696
700
704
708
712
716
720
724
728
732
736
740
744
748
752
756
760
764
768
772
776
780
784
788
792
796
800
804
808
812
816
820
824
828
832
836
840
844
848
852
856
860
864
868
872
876
880
884
888
892
896
900
904
908
912
916
920
924
928
932
936
940
944
948
952
956
960
964
968
972
976
980
984
988
992
996
1000
1004
1008
1012
1016
1020
1024
1028
1032
1036
1040
1044
1048
1052
1056
1060
1064
1068
1072
1076
1080
1084
1088
1092
1096
1100
1104
1108
1112
1116
1120
1124
1128
1132
1136
1140
1144
1148
1152
1156
1160
1164
1168
1172
1176
1180
1184
1188
1192
1196
1200
1204
1208
1212
1216
1220
1224
1228
1232
1236
1240
1244
1248
1252
1256
1260
1264
1268
1272
1276
1280
1284
1288
1292
1296
1300
1304
1308
1312
1316
1320
1324
1328
1332
1336
1340
1344
1348
1352
1356
1360
1364
1368
1372
1376
1380
1384
1388
1392
1396
1400
1404
1408
1412
1416
1420
1424
1428
1432
1436
1440
1444
1448
1452
1456
1460
1464
1468
1472
1476
1480
1484
1488
1492
1496
1500
1504
1508
1512
1516
1520
1524
1528
1532
1536
1540
1544
1548
1552
1556
1560
1564
1568
1572
1576
1580
1584
1588
1592
1596
1600
1604
1608
1612
1616
1620
1624
1628
1632
1636
1640
1644
1648
1652
1656
1660
1664
1668
1672
1676
1680
1684
1688
1692
1696
1700
1704
1708
1712
1716
1720
1724
1728
1732
1736
1740
1744
1748
1752
1754
1756
1758
1760
1762
1764
1766
1768
1770
1772
1774
1776
1778
1780
1782
1784
1786
1788
1790
1792
1794
1796
1798
1800
1802
1804
1806
1808
1810
J0 8
150 1
153 1
156 1
159 1
162 1
165 1
168 1
171 1
J1 8
151 1
154 1
157 1
160 1
163 1
166 1
169 1
172 1
J2 8
152 1
155 1
158 1
161 1
164 1
167 1
170 1
173 1
J3 8
174 1
177 1
180 1
183 1
186 1
189 1
192 1
195 1
J4 8
175 1
178 1
181 1
184 1
187 1
190 1
193 1
196 1
J5 8
176 1
179 1
182 1
185 1
188 1
191 1
194 1
197 1
J6 8
198 1
201 1
204 1
207 1
210 1
213 1
216 1
219 1
J7 8
199 1
202 1
205 1
208 1
211 1
214 1
217 1
220 1
J8 8
200 1
203 1
206 1
209 1
212 1
215 1
218 1
221 1
J9 8
222 1
225 1
228 1
231 1
234 1
237 1
240 1
243 1
J10 8
223 1
226 1
229 1
232 1
235 1
238 1
241 1
244 1
J11 8
224 1
227 1
230 1
233 1
236 1
239 1
242 1
245 1
J12 8
246 1
249 1
252 1
255 1
258 1
261 1
264 1
267 1
J13 8
247 1
250 1
253 1
256 1
259 1
262 1
265 1
268 1
J14 8
248 1
251 1
254 1
257 1
260 1
263 1
266 1
269 1
J15 8
270 1
273 1
276 1
279 1
282 1
285 1
288 1
291 1
J16 8
271 1
274 1
277 1
280 1
283 1
286 1
289 1
292 1
J17 8
272 1
275 1
278 1
281 1
284 1
287 1
290 1
293 1
J18 8
294 1
297 1
300 1
303 1
306 1
309 1
312 1
315 1
J19 8
295 1
298 1
301 1
304 1
307 1
310 1
313 1
316 1
J20 8
296 1
299 1
302 1
305 1
308 1
311 1
314 1
317 1
J21 12
150 -1
174 -1
198 -1
222 -1
246 -1
270 -1
294 -1
318 1
321 1
324 1
327 1
330 1
J22 12
151 -1
175 -1
199 -1
223 -1
247 -1
271 -1
295 -1
319 1
322 1
325 1
328 1
331 1
J23 12
152 -1
176 -1
200 -1
224 -1
248 -1
272 -1
296 -1
320 1
323 1
326 1
329 1
332 1
J24 12
153 -1
177 -1
201 -1
225 -1
249 -1
273 -1
297 -1
333 1
336 1
339 1
342 1
345 1
J25 12
154 -1
178 -1
202 -1
226 -1
250 -1
274 -1
298 -1
334 1
337 1
340 1
343 1
346 1
J26 12
155 -1
179 -1
203 -1
227 -1
251 -1
275 -1
299 -1
335 1
338 1
341 1
344 1
347 1
J27 12
156 -1
180 -1
204 -1
228 -1
252 -1
276 -1
300 -1
348 1
351 1
354 1
357 1
360 1
J28 12
157 -1
181 -1
205 -1
229 -1
253 -1
277 -1
301 -1
349 1
352 1
355 1
358 1
361 1
J29 12
158 -1
182 -1
206 -1
230 -1
254 -1
278 -1
302 -1
350 1
353 1
356 1
359 1
362 1
J30 12
159 -1
183 -1
207 -1
231 -1
255 -1
279 -1
303 -1
363 1
366 1
369 1
372 1
375 1
J31 12
160 -1
184 -1
208 -1
232 -1
256 -1
280 -1
304 -1
364 1
367 1
370 1
373 1
376 1
J32 12
161 -1
185 -1
209 -1
233 -1
257 -1
281 -1
305 -1
365 1
368 1
371 1
374 1
377 1
J33 12
162 -1
186 -1
210 -1
234 -1
258 -1
282 -1
306 -1
378 1
381 1
384 1
387 1
390 1
J34 12
163 -1
187 -1
211 -1
235 -1
259 -1
283 -1
307 -1
379 1
382 1
385 1
388 1
391 1
J35 12
164 -1
188 -1
212 -1
236 -1
260 -1
284 -1
308 -1
380 1
383 1
386 1
389 1
392 1
J36 12
165 -1
189 -1
213 -1
237 -1
261 -1
285 -1
309 -1
393 1
396 1
399 1
402 1
405 1
J37 12
166 -1
190 -1
214 -1
238 -1
262 -1
286 -1
310 -1
394 1
397 1
400 1
403 1
406 1
J38 12
167 -1
191 -1
215 -1
239 -1
263 -1
287 -1
311 -1
395 1
398 1
401 1
404 1
407 1
J39 12
168 -1
192 -1
216 -1
240 -1
264 -1
288 -1
312 -1
408 1
411 1
414 1
417 1
420 1
J40 12
169 -1
193 -1
217 -1
241 -1
265 -1
289 -1
313 -1
409 1
412 1
415 1
418 1
421 1
J41 12
170 -1
194 -1
218 -1
242 -1
266 -1
290 -1
314 -1
410 1
413 1
416 1
419 1
422 1
J42 12
171 -1
195 -1
219 -1
243 -1
267 -1
291 -1
315 -1
423 1
426 1
429 1
432 1
435 1
J43 12
172 -1
196 -1
220 -1
244 -1
268 -1
292 -1
316 -1
424 1
427 1
430 1
433 1
436 1
J44 12
173 -1
197 -1
221 -1
245 -1
269 -1
293 -1
317 -1
425 1
428 1
431 1
434 1
437 1
J45 18
0 1
3 1
6 1
9 1
12 1
15 1
18 1
21 1
24 1
27 1
318 -1
333 -1
348 -1
363 -1
378 -1
393 -1
408 -1
423 -1
J46 18
1 1
4 1
7 1
10 1
13 1
16 1
19 1
22 1
25 1
28 1
319 -1
334 -1
349 -1
364 -1
379 -1
394 -1
409 -1
424 -1
J47 18
2 1
5 1
8 1
11 1
14 1
17 1
20 1
23 1
26 1
29 1
320 -1
335 -1
350 -1
365 -1
380 -1
395 -1
410 -1
425 -1
J48 18
30 1
33 1
36 1
39 1
42 1
45 1
48 1
51 1
54 1
57 1
321 -1
336 -1
351 -1
366 -1
381 -1
396 -1
411 -1
426 -1
J49 18
31 1
34 1
37 1
40 1
43 1
46 1
49 1
52 1
55 1
58 1
322 -1
337 -1
352 -1
367 -1
382 -1
397 -1
412 -1
427 -1
J50 18
32 1
35 1
38 1
41 1
44 1
47 1
50 1
53 1
56 1
59 1
323 -1
338 -1
353 -1
368 -1
383 -1
398 -1
413 -1
428 -1
J51 18
60 1
63 1
66 1
69 1
72 1
75 1
78 1
81 1
84 1
87 1
324 -1
339 -1
354 -1
369 -1
384 -1
399 -1
414 -1
429 -1
J52 18
61 1
64 1
67 1
70 1
73 1
76 1
79 1
82 1
85 1
88 1
325 -1
340 -1
355 -1
370 -1
385 -1
400 -1
415 -1
430 -1
J53 18
62 1
65 1
68 1
71 1
74 1
77 1
80 1
83 1
86 1
89 1
326 -1
341 -1
356 -1
371 -1
386 -1
401 -1
416 -1
431 -1
J54 18
90 1
93 1
96 1
99 1
102 1
105 1
108 1
111 1
114 1
117 1
327 -1
342 -1
357 -1
372 -1
387 -1
402 -1
417 -1
432 -1
J55 18
91 1
94 1
97 1
100 1
103 1
106 1
109 1
112 1
115 1
118 1
328 -1
343 -1
358 -1
373 -1
388 -1
403 -1
418 -1
433 -1
J56 18
92 1
95 1
98 1
101 1
104 1
107 1
110 1
113 1
116 1
119 1
329 -1
344 -1
359 -1
374 -1
389 -1
404 -1
419 -1
434 -1
J57 18
120 1
123 1
126 1
129 1
132 1
135 1
138 1
141 1
144 1
147 1
330 -1
345 -1
360 -1
375 -1
390 -1
405 -1
420 -1
435 -1
J58 18
121 1
124 1
127 1
130 1
133 1
136 1
139 1
142 1
145 1
148 1
331 -1
346 -1
361 -1
376 -1
391 -1
406 -1
421 -1
436 -1
J59 18
122 1
125 1
128 1
131 1
134 1
137 1
140 1
143 1
146 1
149 1
332 -1
347 -1
362 -1
377 -1
392 -1
407 -1
422 -1
437 -1
J60 6
0 -1
30 -1
60 -1
90 -1
120 -1
438 -1
J61 6
1 -1
31 -1
61 -1
91 -1
121 -1
439 -1
J62 6
2 -1
32 -1
62 -1
92 -1
122 -1
440 -1
J63 6
3 -1
33 -1
63 -1
93 -1
123 -1
441 -1
J64 6
4 -1
34 -1
64 -1
94 -1
124 -1
442 -1
J65 6
5 -1
35 -1
65 -1
95 -1
125 -1
443 -1
J66 6
6 -1
36 -1
66 -1
96 -1
126 -1
444 -1
J67 6
7 -1
37 -1
67 -1
97 -1
127 -1
445 -1
J68 6
8 -1
38 -1
68 -1
98 -1
128 -1
446 -1
J69 6
9 -1
39 -1
69 -1
99 -1
129 -1
447 -1
J70 6
10 -1
40 -1
70 -1
100 -1
130 -1
448 -1
J71 6
11 -1
41 -1
71 -1
101 -1
131 -1
449 -1
J72 6
12 -1
42 -1
72 -1
102 -1
132 -1
450 -1
J73 6
13 -1
43 -1
73 -1
103 -1
133 -1
451 -1
J74 6
14 -1
44 -1
74 -1
104 -1
134 -1
452 -1
J75 6
15 -1
45 -1
75 -1
105 -1
135 -1
453 -1
J76 6
16 -1
46 -1
76 -1
106 -1
136 -1
454 -1
J77 6
17 -1
47 -1
77 -1
107 -1
137 -1
455 -1
J78 6
18 -1
48 -1
78 -1
108 -1
138 -1
456 -1
J79 6
19 -1
49 -1
79 -1
109 -1
139 -1
457 -1
J80 6
20 -1
50 -1
80 -1
110 -1
140 -1
458 -1
J81 6
21 -1
51 -1
81 -1
111 -1
141 -1
459 -1
J82 6
22 -1
52 -1
82 -1
112 -1
142 -1
460 -1
J83 6
23 -1
53 -1
83 -1
113 -1
143 -1
461 -1
J84 6
24 -1
54 -1
84 -1
114 -1
144 -1
462 -1
J85 6
25 -1
55 -1
85 -1
115 -1
145 -1
463 -1
J86 6
26 -1
56 -1
86 -1
116 -1
146 -1
464 -1
J87 6
27 -1
57 -1
87 -1
117 -1
147 -1
465 -1
J88 6
28 -1
58 -1
88 -1
118 -1
148 -1
466 -1
J89 6
29 -1
59 -1
89 -1
119 -1
149 -1
467 -1
J90 10
438 1
441 1
444 1
447 1
450 1
453 1
456 1
459 1
462 1
465 1
J91 10
439 1
442 1
445 1
448 1
451 1
454 1
457 1
460 1
463 1
466 1
J92 10
440 1
443 1
446 1
449 1
452 1
455 1
458 1
461 1
464 1
467 1
J93 21
150 1
151 1
152 1
174 1
175 1
176 1
198 1
199 1
200 1
222 1
223 1
224 1
246 1
247 1
248 1
270 1
271 1
272 1
294 1
295 1
296 1
J94 21
153 1
154 1
155 1
177 1
178 1
179 1
201 1
202 1
203 1
225 1
226 1
227 1
249 1
250 1
251 1
273 1
274 1
275 1
297 1
298 1
299 1
J95 21
156 1
157 1
158 1
180 1
181 1
182 1
204 1
205 1
206 1
228 1
229 1
230 1
252 1
253 1
254 1
276 1
277 1
278 1
300 1
301 1
302 1
J96 21
159 1
160 1
161 1
183 1
184 1
185 1
207 1
208 1
209 1
231 1
232 1
233 1
255 1
256 1
257 1
279 1
280 1
281 1
303 1
304 1
305 1
J97 21
162 1
163 1
164 1
186 1
187 1
188 1
210 1
211 1
212 1
234 1
235 1
236 1
258 1
259 1
260 1
282 1
283 1
284 1
306 1
307 1
308 1
J98 21
165 1
166 1
167 1
189 1
190 1
191 1
213 1
214 1
215 1
237 1
238 1
239 1
261 1
262 1
263 1
285 1
286 1
287 1
309 1
310 1
311 1
J99 21
168 1
169 1
170 1
192 1
193 1
194 1
216 1
217 1
218 1
240 1
241 1
242 1
264 1
265 1
266 1
288 1
289 1
290 1
312 1
313 1
314 1
J100 21
171 1
172 1
173 1
195 1
196 1
197 1
219 1
220 1
221 1
243 1
244 1
245 1
267 1
268 1
269 1
291 1
292 1
293 1
315 1
316 1
317 1
J101 24
318 1
319 1
320 1
333 1
334 1
335 1
348 1
349 1
350 1
363 1
364 1
365 1
378 1
379 1
380 1
393 1
394 1
395 1
408 1
409 1
410 1
423 1
424 1
425 1
J102 24
321 1
322 1
323 1
336 1
337 1
338 1
351 1
352 1
353 1
366 1
367 1
368 1
381 1
382 1
383 1
396 1
397 1
398 1
411 1
412 1
413 1
426 1
427 1
428 1
J103 24
324 1
325 1
326 1
339 1
340 1
341 1
354 1
355 1
356 1
369 1
370 1
371 1
384 1
385 1
386 1
399 1
400 1
401 1
414 1
415 1
416 1
429 1
430 1
431 1
J104 24
327 1
328 1
329 1
342 1
343 1
344 1
357 1
358 1
359 1
372 1
373 1
374 1
387 1
388 1
389 1
402 1
403 1
404 1
417 1
418 1
419 1
432 1
433 1
434 1
J105 24
330 1
331 1
332 1
345 1
346 1
347 1
360 1
361 1
362 1
375 1
376 1
377 1
390 1
391 1
392 1
405 1
406 1
407 1
420 1
421 1
422 1
435 1
436 1
437 1
J106 15
0 1
1 1
2 1
30 1
31 1
32 1
60 1
61 1
62 1
90 1
91 1
92 1
120 1
121 1
122 1
J107 15
3 1
4 1
5 1
33 1
34 1
35 1
63 1
64 1
65 1
93 1
94 1
95 1
123 1
124 1
125 1
J108 15
6 1
7 1
8 1
36 1
37 1
38 1
66 1
67 1
68 1
96 1
97 1
98 1
126 1
127 1
128 1
J109 15
9 1
10 1
11 1
39 1
40 1
41 1
69 1
70 1
71 1
99 1
100 1
101 1
129 1
130 1
131 1
J110 15
12 1
13 1
14 1
42 1
43 1
44 1
72 1
73 1
74 1
102 1
103 1
104 1
132 1
133 1
134 1
J111 15
15 1
16 1
17 1
45 1
46 1
47 1
75 1
76 1
77 1
105 1
106 1
107 1
135 1
136 1
137 1
J112 15
18 1
19 1
20 1
48 1
49 1
50 1
78 1
79 1
80 1
108 1
109 1
110 1
138 1
139 1
140 1
J113 15
21 1
22 1
23 1
51 1
52 1
53 1
81 1
82 1
83 1
111 1
112 1
113 1
141 1
142 1
143 1
J114 15
24 1
25 1
26 1
54 1
55 1
56 1
84 1
85 1
86 1
114 1
115 1
116 1
144 1
145 1
146 1
J115 15
27 1
28 1
29 1
57 1
58 1
59 1
87 1
88 1
89 1
117 1
118 1
119 1
147 1
148 1
149 1
J116 24
150 1
151 1
152 1
153 1
154 1
155 1
156 1
157 1
158 1
159 1
160 1
161 1
162 1
163 1
164 1
165 1
166 1
167 1
168 1
169 1
170 1
171 1
172 1
173 1
J117 24
174 1
175 1
176 1
177 1
178 1
179 1
180 1
181 1
182 1
183 1
184 1
185 1
186 1
187 1
188 1
189 1
190 1
191 1
192 1
193 1
194 1
195 1
196 1
197 1
J118 24
198 1
199 1
200 1
201 1
202 1
203 1
204 1
205 1
206 1
207 1
208 1
209 1
210 1
211 1
212 1
213 1
214 1
215 1
216 1
217 1
218 1
219 1
220 1
221 1
J119 24
222 1
223 1
224 1
225 1
226 1
227 1
228 1
229 1
230 1
231 1
232 1
233 1
234 1
235 1
236 1
237 1
238 1
239 1
240 1
241 1
242 1
243 1
244 1
245 1
J120 24
246 1
247 1
248 1
249 1
250 1
251 1
252 1
253 1
254 1
255 1
256 1
257 1
258 1
259 1
260 1
261 1
262 1
263 1
264 1
265 1
266 1
267 1
268 1
269 1
J121 24
270 1
271 1
272 1
273 1
274 1
275 1
276 1
277 1
278 1
279 1
280 1
281 1
282 1
283 1
284 1
285 1
286 1
287 1
288 1
289 1
290 1
291 1
292 1
293 1
J122 24
294 1
295 1
296 1
297 1
298 1
299 1
300 1
301 1
302 1
303 1
304 1
305 1
306 1
307 1
308 1
309 1
310 1
311 1
312 1
313 1
314 1
315 1
316 1
317 1
J123 15
318 1
319 1
320 1
321 1
322 1
323 1
324 1
325 1
326 1
327 1
328 1
329 1
330 1
331 1
332 1
J124 15
333 1
334 1
335 1
336 1
337 1
338 1
339 1
340 1
341 1
342 1
343 1
344 1
345 1
346 1
347 1
J125 15
348 1
349 1
350 1
351 1
352 1
353 1
354 1
355 1
356 1
357 1
358 1
359 1
360 1
361 1
362 1
J126 15
363 1
364 1
365 1
366 1
367 1
368 1
369 1
370 1
371 1
372 1
373 1
374 1
375 1
376 1
377 1
J127 15
378 1
379 1
380 1
381 1
382 1
383 1
384 1
385 1
386 1
387 1
388 1
389 1
390 1
391 1
392 1
J128 15
393 1
394 1
395 1
396 1
397 1
398 1
399 1
400 1
401 1
402 1
403 1
404 1
405 1
406 1
407 1
J129 15
408 1
409 1
410 1
411 1
412 1
413 1
414 1
415 1
416 1
417 1
418 1
419 1
420 1
421 1
422 1
J130 15
423 1
424 1
425 1
426 1
427 1
428 1
429 1
430 1
431 1
432 1
433 1
434 1
435 1
436 1
437 1
J131 30
0 1
1 1
2 1
3 1
4 1
5 1
6 1
7 1
8 1
9 1
10 1
11 1
12 1
13 1
14 1
15 1
16 1
17 1
18 1
19 1
20 1
21 1
22 1
23 1
24 1
25 1
26 1
27 1
28 1
29 1
J132 30
30 1
31 1
32 1
33 1
34 1
35 1
36 1
37 1
38 1
39 1
40 1
41 1
42 1
43 1
44 1
45 1
46 1
47 1
48 1
49 1
50 1
51 1
52 1
53 1
54 1
55 1
56 1
57 1
58 1
59 1
J133 30
60 1
61 1
62 1
63 1
64 1
65 1
66 1
67 1
68 1
69 1
70 1
71 1
72 1
73 1
74 1
75 1
76 1
77 1
78 1
79 1
80 1
81 1
82 1
83 1
84 1
85 1
86 1
87 1
88 1
89 1
J134 30
90 1
91 1
92 1
93 1
94 1
95 1
96 1
97 1
98 1
99 1
100 1
101 1
102 1
103 1
104 1
105 1
106 1
107 1
108 1
109 1
110 1
111 1
112 1
113 1
114 1
115 1
116 1
117 1
118 1
119 1
J135 30
120 1
121 1
122 1
123 1
124 1
125 1
126 1
127 1
128 1
129 1
130 1
131 1
132 1
133 1
134 1
135 1
136 1
137 1
138 1
139 1
140 1
141 1
142 1
143 1
144 1
145 1
146 1
147 1
148 1
149 1
G0 438
0 790
1 790
2 790
3 526
4 526
5 526
6 712
7 712
8 712
9 367
10 367
11 367
12 934
13 934
14 934
15 676
16 676
17 676
18 516
19 516
20 516
21 267
22 267
23 267
24 941
25 941
26 941
27 142
28 142
29 142
30 655
31 655
32 655
33 384
34 384
35 384
36 496
37 496
38 496
39 111
40 111
41 111
42 706
43 706
44 706
45 401
46 401
47 401
48 997
49 997
50 997
51 352
52 352
53 352
54 598
55 598
56 598
57 853
58 853
59 853
60 134
61 134
62 134
63 826
64 826
65 826
66 948
67 948
68 948
69 189
70 189
71 189
72 875
73 875
74 875
75 704
76 704
77 704
78 701
79 701
80 701
81 517
82 517
83 517
84 214
85 214
86 214
87 716
88 716
89 716
90 295
91 295
92 295
93 925
94 925
95 925
96 600
97 600
98 600
99 725
100 725
101 725
102 592
103 592
104 592
105 174
106 174
107 174
108 512
109 512
110 512
111 475
112 475
113 475
114 519
115 519
116 519
117 828
118 828
119 828
120 376
121 376
122 376
123 860
124 860
125 860
126 775
127 775
128 775
129 493
130 493
131 493
132 968
133 968
134 968
135 556
136 556
137 556
138 291
139 291
140 291
141 838
142 838
143 838
144 788
145 788
146 788
147 198
148 198
149 198
150 735
151 735
152 735
153 205
154 205
155 205
156 769
157 769
158 769
159 758
160 758
161 758
162 756
163 756
164 756
165 219
166 219
167 219
168 930
169 930
170 930
171 886
172 886
173 886
174 703
175 703
176 703
177 157
178 157
179 157
180 445
181 445
182 445
183 840
184 840
185 840
186 573
187 573
188 573
189 216
190 216
191 216
192 929
193 929
194 929
195 890
196 890
197 890
198 226
199 226
200 226
201 492
202 492
203 492
204 740
205 740
206 740
207 157
208 157
209 157
210 733
211 733
212 733
213 612
214 612
215 612
216 850
217 850
218 850
219 901
220 901
221 901
222 195
223 195
224 195
225 737
226 737
227 737
228 217
229 217
230 217
231 659
232 659
233 659
234 700
235 700
236 700
237 587
238 587
239 587
240 336
241 336
242 336
243 984
244 984
245 984
246 996
247 996
248 996
249 371
250 371
251 371
252 288
253 288
254 288
255 803
256 803
257 803
258 546
259 546
260 546
261 680
262 680
263 680
264 889
265 889
266 889
267 960
268 960
269 960
270 346
271 346
272 346
273 175
274 175
275 175
276 253
277 253
278 253
279 755
280 755
281 755
282 534
283 534
284 534
285 185
286 185
287 185
288 796
289 796
290 796
291 384
292 384
293 384
294 319
295 319
296 319
297 168
298 168
299 168
300 146
301 146
302 146
303 193
304 193
305 193
306 849
307 849
308 849
309 552
310 552
311 552
312 303
313 303
314 303
315 317
316 317
317 317
318 573
319 573
320 573
321 531
322 531
323 531
324 440
325 440
326 440
327 650
328 650
329 650
330 711
331 711
332 711
333 388
334 388
335 388
336 353
337 353
338 353
339 833
340 833
341 833
342 456
343 456
344 456
345 122
346 122
347 122
348 861
349 861
350 861
351 621
352 621
353 621
354 857
355 857
356 857
357 936
358 936
359 936
360 199
361 199
362 199
363 901
364 901
365 901
366 279
367 279
368 279
369 322
370 322
371 322
372 861
373 861
374 861
375 758
376 758
377 758
378 541
379 541
380 541
381 707
382 707
383 707
384 868
385 868
386 868
387 424
388 424
389 424
390 615
391 615
392 615
393 115
394 115
395 115
396 891
397 891
398 891
399 435
400 435
401 435
402 858
403 858
404 858
405 357
406 357
407 357
408 596
409 596
410 596
411 995
412 995
413 995
414 259
415 259
416 259
417 574
418 574
419 574
420 951
421 951
422 951
423 763
424 763
425 763
426 789
427 789
428 789
429 774
430 774
431 774
432 479
433 479
434 479
435 644
436 644
437 644
